186	32	4	104	
10	10	10	10

0	0	0	0	0	0	6	1	7	27	28	29	30
1	1	1	1	0	2	1	2
2	0	4	1	1	2	3	26	14	3
3	5	0	4	5	10	2	11	4
4	5	3	0	4	7	3	25	17	5
5	7	5	0	2	10	2	24	6
6	2	2	0	6	4	3	23	16	8
7	0	7	4	2	6	3	16	11	9
8	9	0	5	4	9	1	9
9	4	3	3	0	9	1	10
10	0	2	2	2	4	2	22	12
11	3	6	5	0	8	1	12
12	0	5	2	2	6	1	13
13	5	4	0	8	8	1	15
14	0	2	7	4	3	1	15
15	3	7	5	0	5	2	21	18
16	2	3	4	0	9	2	21	18
17	0	6	3	4	10	1	18
18	5	5	0	2	9	1	19
19	0	2	4	3	9	1	20
20	0	3	5	3	10	1	31
21	0	5	3	7	6	1	31
22	4	6	0	5	5	1	31
23	0	4	5	6	10	1	31
24	5	2	0	4	5	1	31
25	3	5	0	4	1	1	31
26	5	0	5	2	4	1	31
27	2	5	0	2	3	1	31
28	2	4	0	7	3	1	31
29	0	3	4	7	6	1	31
30	4	4	8	0	3	1	31
31	0	0	0	0	0	0
